0 9 2 23 6 22 3 2 4 16 1 4 7 9 5 20
7 16 6 20 1 11 3 34 2 13 5 25 4 4 0 36
7 22 1 11 2 31 6 9 4 16 3 36 0 34 5 31
1 29 6 20 7 22 3 23 0 2 4 20 5 13 2 9
3 32 7 13 6 34 1 7 5 27 0 27 4 11 2 4
4 32 6 9 5 13 7 23 2 2 1 2 0 34 3 34
1 22 7 23 0 22 5 29 6 23 3 25 2 31 4 25
6 31 1 27 5 20 2 34 0 18 7 22 4 27 3 4
